
Gurobi 11.0.0 (linux64) logging started Thu Dec  5 15:06:08 2024

Set parameter LogFile to value "gurobi.log"
Set parameter InfUnbdInfo to value 1
Gurobi Optimizer version 11.0.0 build v11.0.0rc2 (linux64 - "Ubuntu 22.04.4 LTS")

CPU model: AMD EPYC 7V13 64-Core Processor, instruction set [SSE2|AVX|AVX2]
Thread count: 128 physical cores, 128 logical processors, using up to 32 threads

Optimize a model with 57 rows, 236 columns and 181 nonzeros
Model fingerprint: 0x9440a3ee
Model has 172 quadratic constraints
Model has 13 general constraints
Variable types: 51 continuous, 185 integer (0 binary)
Coefficient statistics:
  Matrix range     [1e+00, 2e+01]
  QMatrix range    [1e+00, 2e+02]
  QLMatrix range   [1e+00, 2e+02]
  Objective range  [1e+00, 1e+00]
  Bounds range     [1e+00, 2e+06]
  RHS range        [1e+00, 2e+06]
  QRHS range       [2e+02, 9e+03]
Using branch priorities (all 0).
Presolve added 105 rows and 52 columns
Presolve time: 0.01s
Presolved: 608 rows, 518 columns, 1712 nonzeros
Presolved model has 151 SOS constraint(s)
Presolved model has 45 bilinear constraint(s)
Warning: Model contains variables with very large bounds participating
         in product terms.
         Presolve was not able to compute smaller bounds for these variables.
         Consider bounding these variables or reformulating the model.


Solving non-convex MIQCP

Variable types: 114 continuous, 404 integer (161 binary)

Root relaxation: objective 1.338551e+02, 191 iterations, 0.00 seconds (0.00 work units)

    Nodes    |    Current Node    |     Objective Bounds      |     Work
 Expl Unexpl |  Obj  Depth IntInf | Incumbent    BestBd   Gap | It/Node Time

     0     0  133.85511    0  102          -  133.85511      -     -    0s
     0     0  133.85511    0   94          -  133.85511      -     -    0s
H    0     0                    163615.37500  133.85511   100%     -    0s
     0     0  203.02451    0  160 163615.375  203.02451   100%     -    0s
H    0     0                    137461.37500  211.89299   100%     -    0s
     0     0  213.75987    0  160 137461.375  213.75987   100%     -    0s
H    0     0                    126172.37500  230.43603   100%     -    0s
     0     0  246.16801    0  209 126172.375  246.16801   100%     -    0s
     0     0  255.24876    0  209 126172.375  255.24876   100%     -    0s
H    0     0                    104979.26933  255.24876   100%     -    0s
     0     0  505.56998    0  208 104979.269  505.56998   100%     -    0s
H    0     0                    92269.437500  505.56998  99.5%     -    0s
     0     0  781.21539    0  208 92269.4375  781.21539  99.2%     -    0s
     0     0 4514.93349    0  203 92269.4375 4514.93349  95.1%     -    0s
H    0     0                    88279.375000 4514.93349  94.9%     -    0s
     0     0 6289.12070    0  204 88279.3750 6289.12070  92.9%     -    0s
     0     0 6851.48376    0  201 88279.3750 6851.48376  92.2%     -    0s
     0     0 7255.92046    0  201 88279.3750 7255.92046  91.8%     -    0s
H    0     0                    87103.625000 8319.79317  90.4%     -    0s
H    0     0                    85861.437500 8482.21840  90.1%     -    0s
     0     0 8482.21840    0  197 85861.4375 8482.21840  90.1%     -    0s
     0     0 8574.67536    0  199 85861.4375 8574.67536  90.0%     -    0s
     0     0 8808.73067    0  198 85861.4375 8808.73067  89.7%     -    0s
H    0     0                    79597.437500 10103.3855  87.3%     -    0s
     0     0 10189.0597    0  197 79597.4375 10189.0597  87.2%     -    0s
H    0     0                    78355.375000 10189.0597  87.0%     -    0s
     0     0 10914.3055    0  169 78355.3750 10914.3055  86.1%     -    0s
     0     0 12090.5119    0  169 78355.3750 12090.5119  84.6%     -    0s
     0     0 13076.6546    0  169 78355.3750 13076.6546  83.3%     -    0s
H    0     0                    71447.801853 13076.6546  81.7%     -    0s
     0     0 13556.3405    0  169 71447.8019 13556.3405  81.0%     -    0s
     0     0 14226.8256    0  169 71447.8019 14226.8256  80.1%     -    0s
H    0     0                    56867.050530 14604.7932  74.3%     -    0s
     0     0 14604.7932    0  171 56867.0505 14604.7932  74.3%     -    0s
     0     0 15123.4636    0  171 56867.0505 15123.4636  73.4%     -    0s
     0     0 15553.6615    0  172 56867.0505 15553.6615  72.6%     -    0s
     0     0 15957.0612    0  206 56867.0505 15957.0612  71.9%     -    0s
     0     0 16749.4638    0  205 56867.0505 16749.4638  70.5%     -    0s
H    0     0                    55429.396795 19482.8175  64.9%     -    0s
     0     0 19482.8175    0  225 55429.3968 19482.8175  64.9%     -    0s
     0     0 19482.8175    0   89 55429.3968 19482.8175  64.9%     -    1s
     0     0 19482.8175    0   89 55429.3968 19482.8175  64.9%     -    1s
     0     0 19482.8175    0  132 55429.3968 19482.8175  64.9%     -    1s
     0     0 19482.8175    0  116 55429.3968 19482.8175  64.9%     -    1s
     0     0 19482.8175    0  137 55429.3968 19482.8175  64.9%     -    1s
     0     0 19482.8175    0  137 55429.3968 19482.8175  64.9%     -    1s
     0     0 19482.8175    0  145 55429.3968 19482.8175  64.9%     -    2s
     0     0 19482.8175    0   97 55429.3968 19482.8175  64.9%     -    2s
H    0     0                    47316.036242 19482.8175  58.8%     -    2s
     0     0 19482.8175    0   85 47316.0362 19482.8175  58.8%     -    2s
     0     0 19482.8175    0  115 47316.0362 19482.8175  58.8%     -    2s
     0     0 19482.8175    0  118 47316.0362 19482.8175  58.8%     -    2s
     0     0 19482.8175    0  102 47316.0362 19482.8175  58.8%     -    2s
     0     0 19482.8175    0  119 47316.0362 19482.8175  58.8%     -    2s
     0     0 19482.8175    0  117 47316.0362 19482.8175  58.8%     -    2s
     0     0 19482.8175    0  122 47316.0362 19482.8175  58.8%     -    3s
     0     0 19482.8175    0  129 47316.0362 19482.8175  58.8%     -    3s
     0     0 19482.8175    0  132 47316.0362 19482.8175  58.8%     -    3s
     0     0 19482.8175    0  136 47316.0362 19482.8175  58.8%     -    3s
     0     0 19482.8175    0  127 47316.0362 19482.8175  58.8%     -    3s
     0     0 19482.8175    0  124 47316.0362 19482.8175  58.8%     -    3s
     0     0 19482.8175    0  140 47316.0362 19482.8175  58.8%     -    3s
H    0     0                    41512.886616 19482.8175  53.1%     -    4s
     0     0 19482.8175    0  118 41512.8866 19482.8175  53.1%     -    4s
H    0     0                    40728.636616 19482.8175  52.2%     -    4s
H    0     2                    40728.449116 19482.8175  52.2%     -    4s
     0     2 19482.8175    0  118 40728.4491 19482.8175  52.2%     -    4s
    96    77 19482.8175    7   67 40728.4491 19482.8175  52.2%  26.9    5s
*  864    29              21    39027.216203 19482.8175  50.1%  13.9    5s

Cutting planes:
  Gomory: 5
  Cover: 2
  Implied bound: 60
  MIR: 29
  StrongCG: 7
  Flow cover: 6
  Mod-K: 1
  Network: 1
  RLT: 29
  Relax-and-lift: 67
  BQP: 8

Explored 1039 nodes (16094 simplex iterations) in 6.07 seconds (0.44 work units)
Thread count was 32 (of 128 available processors)

Solution count 10: 39027.2 40728.4 40728.6 ... 79597.4

Optimal solution found (tolerance 1.00e-04)
Warning: max constraint violation (6.7261e-04) exceeds tolerance
Warning: max general constraint violation (6.7261e-04) exceeds tolerance
Best objective 3.902721620294e+04, best bound 3.902721620294e+04, gap 0.0000%
